\Problem name: compact

Minimize
OBJROW: C
Subject To
ord(0,1):  x(j0,m1) - x(j0,m2) >= 4
ord(0,2):  x(j0,m0) - x(j0,m1) >= 4
ord(1,1):  - x(j1,m0) + x(j1,m1) >= 10
ord(1,2):  - x(j1,m1) + x(j1,m2) >= 3
ord(2,1):  x(j2,m0) - x(j2,m1) >= 4
ord(2,2):  - x(j2,m0) + x(j2,m2) >= 1
phi(0,1,0):  x(j0,m0) + 38 y(j0,k1,m0) - x(j1,m0) >= 10
psy(0,1,0):  - x(j0,m0) -38 y(j0,k1,m0) + x(j1,m0) >= -37
phi(0,1,1):  x(j0,m1) + 38 y(j0,k1,m1) - x(j1,m1) >= 3
psy(0,1,1):  - x(j0,m1) -38 y(j0,k1,m1) + x(j1,m1) >= -34
phi(0,1,2):  x(j0,m2) + 38 y(j0,k1,m2) - x(j1,m2) >= 5
psy(0,1,2):  - x(j0,m2) -38 y(j0,k1,m2) + x(j1,m2) >= -34
phi(0,2,0):  x(j0,m0) + 38 y(j0,k2,m0) - x(j2,m0) >= 1
psy(0,2,0):  - x(j0,m0) -38 y(j0,k2,m0) + x(j2,m0) >= -37
phi(0,2,1):  x(j0,m1) + 38 y(j0,k2,m1) - x(j2,m1) >= 4
psy(0,2,1):  - x(j0,m1) -38 y(j0,k2,m1) + x(j2,m1) >= -34
phi(0,2,2):  x(j0,m2) + 38 y(j0,k2,m2) - x(j2,m2) >= 6
psy(0,2,2):  - x(j0,m2) -38 y(j0,k2,m2) + x(j2,m2) >= -34
phi(1,0,0):  - x(j0,m0) + 38 y(j1,k0,m0) + x(j1,m0) >= 1
psy(1,0,0):  x(j0,m0) -38 y(j1,k0,m0) - x(j1,m0) >= -28
phi(1,0,1):  - x(j0,m1) + 38 y(j1,k0,m1) + x(j1,m1) >= 4
psy(1,0,1):  x(j0,m1) -38 y(j1,k0,m1) - x(j1,m1) >= -35
phi(1,0,2):  - x(j0,m2) + 38 y(j1,k0,m2) + x(j1,m2) >= 4
psy(1,0,2):  x(j0,m2) -38 y(j1,k0,m2) - x(j1,m2) >= -33
phi(1,2,0):  x(j1,m0) + 38 y(j1,k2,m0) - x(j2,m0) >= 1
psy(1,2,0):  - x(j1,m0) -38 y(j1,k2,m0) + x(j2,m0) >= -28
phi(1,2,1):  x(j1,m1) + 38 y(j1,k2,m1) - x(j2,m1) >= 4
psy(1,2,1):  - x(j1,m1) -38 y(j1,k2,m1) + x(j2,m1) >= -35
phi(1,2,2):  x(j1,m2) + 38 y(j1,k2,m2) - x(j2,m2) >= 6
psy(1,2,2):  - x(j1,m2) -38 y(j1,k2,m2) + x(j2,m2) >= -33
phi(2,0,0):  - x(j0,m0) + 38 y(j2,k0,m0) + x(j2,m0) >= 1
psy(2,0,0):  x(j0,m0) -38 y(j2,k0,m0) - x(j2,m0) >= -37
phi(2,0,1):  - x(j0,m1) + 38 y(j2,k0,m1) + x(j2,m1) >= 4
psy(2,0,1):  x(j0,m1) -38 y(j2,k0,m1) - x(j2,m1) >= -34
phi(2,0,2):  - x(j0,m2) + 38 y(j2,k0,m2) + x(j2,m2) >= 4
psy(2,0,2):  x(j0,m2) -38 y(j2,k0,m2) - x(j2,m2) >= -32
phi(2,1,0):  - x(j1,m0) + 38 y(j2,k1,m0) + x(j2,m0) >= 10
psy(2,1,0):  x(j1,m0) -38 y(j2,k1,m0) - x(j2,m0) >= -37
phi(2,1,1):  - x(j1,m1) + 38 y(j2,k1,m1) + x(j2,m1) >= 3
psy(2,1,1):  x(j1,m1) -38 y(j2,k1,m1) - x(j2,m1) >= -34
phi(2,1,2):  - x(j1,m2) + 38 y(j2,k1,m2) + x(j2,m2) >= 5
psy(2,1,2):  x(j1,m2) -38 y(j2,k1,m2) - x(j2,m2) >= -32
makespan(0):  C - x(j0,m0) >= 1
makespan(1):  C - x(j1,m2) >= 5
makespan(2):  C - x(j2,m2) >= 6
cut_split(1):  0.95000 y(j0,k1,m0) + 0.95000 y(j1,k0,m0) + 0.95000 y(j1,k2,m0) + 0.95000 y(j0,k1,m1) + 0.95000 y(j1,k0,m1) + 0.95000 y(j2,k1,m1) >= 0.94737
cut_split(2):  0.95000 y(j2,k0,m0) + 0.95000 y(j1,k2,m0) + 0.95000 y(j0,k1,m1) + 0.95000 y(j1,k0,m1) + 0.95000 y(j0,k1,m2) >= 0.92105
cut_split(3):  0.95000 y(j0,k1,m0) + 0.95000 y(j2,k0,m0) + 0.95000 y(j1,k2,m0) + 0.95000 y(j1,k0,m1) + 0.95000 y(j2,k1,m1) + 0.95000 y(j0,k2,m2) >= 0.89474
cut_split(4):  0.95000 y(j1,k0,m0) + 0.95000 y(j1,k2,m0) + 0.95000 y(j0,k1,m1) + 0.95000 y(j1,k0,m1) + 0.95000 y(j2,k0,m1) + 0.95000 y(j0,k1,m2) + 0.95000 y(j0,k2,m2) + 0.95000 y(j2,k1,m2) >= 1.81842
cut_split(5):  0.02632 x(j0,m0) + 0.95000 y(j0,k1,m0) + 0.95000 y(j1,k2,m0) -0.02632 x(j0,m1) + 0.95000 y(j1,k0,m1) + 0.95000 y(j2,k0,m1) + 0.95000 y(j0,k1,m2) >= 0.92105
cut_split(6):  0.02632 x(j0,m0) + 0.95000 y(j0,k1,m0) + 0.95000 y(j1,k2,m0) -0.02632 x(j0,m1) + 0.95000 y(j2,k0,m1) + 0.95000 y(j0,k2,m2) + 0.95000 y(j2,k0,m2) >= 0.76316
cut_split(7):  0.90000 y(j1,k0,m0) + 0.90000 y(j0,k1,m1) + 0.90000 y(j1,k0,m1) + 0.90000 y(j0,k1,m2) >= 0.89474
cut_split(8):  0.90000 y(j1,k0,m0) + 0.90000 y(j1,k2,m0) + 0.90000 y(j0,k1,m1) + 0.90000 y(j1,k0,m1) + 0.90000 y(j2,k0,m1) + 0.90000 y(j0,k1,m2) + 0.90000 y(j0,k2,m2) + 0.90000 y(j2,k1,m2) >= 1.76842
cut_split(9):  0.90000 y(j1,k0,m0) + 0.90000 y(j1,k2,m0) + 0.90000 y(j1,k0,m1) + 0.90000 y(j2,k1,m1) + 0.90000 y(j0,k1,m2) + 0.90000 y(j0,k2,m2) + 0.90000 y(j2,k1,m2) >= 1.66316
cut_split(10):  0.80000 y(j1,k0,m0) + 0.80000 y(j2,k0,m0) + 0.80000 y(j1,k2,m0) + 0.80000 y(j0,k1,m1) + 0.80000 y(j1,k0,m1) + 0.80000 y(j0,k1,m2) + 0.80000 y(j0,k2,m2) + 0.80000 y(j2,k1,m2) >= 1.58947
cut_split(11):  0.80000 y(j1,k0,m0) + 0.80000 y(j1,k2,m0) + 0.80000 y(j1,k0,m1) + 0.80000 y(j2,k1,m1) + 0.80000 y(j0,k1,m2) + 0.80000 y(j0,k2,m2) + 0.80000 y(j2,k1,m2) >= 1.56316
cut_split(12):  0.80000 y(j0,k1,m0) + 0.80000 y(j1,k0,m0) + 0.80000 y(j1,k2,m0) -0.02632 x(j2,m0) + 0.80000 y(j0,k2,m2) + 0.80000 y(j2,k0,m2) + 0.02632 x(j1,m2) -0.20000 y(j2,k1,m2) >= 0.72105
cut_split(13):  0.70000 y(j0,k1,m0) + 0.70000 y(j1,k0,m0) + 0.70000 y(j1,k2,m0) + 0.70000 y(j1,k0,m1) + 0.70000 y(j2,k0,m1) + 0.70000 y(j2,k1,m1) + 0.70000 y(j0,k1,m2) + 0.70000 y(j0,k2,m2) >= 1.38421
cut_split(14):  0.70000 y(j0,k1,m0) + 0.70000 y(j1,k0,m0) + 0.70000 y(j1,k2,m0) + 0.70000 y(j2,k0,m1) + 0.70000 y(j2,k1,m1) + 0.70000 y(j0,k2,m2) >= 0.96316
cut_split(15):  0.60000 y(j1,k0,m0) + 0.60000 y(j2,k0,m0) + 0.60000 y(j1,k2,m0) + 0.60000 y(j0,k1,m2) + 0.60000 y(j0,k2,m2) + 0.60000 y(j2,k1,m2) >= 1.20000
cut_split(16):  -0.00078 x(j1,m0) + 0.57037 y(j1,k2,m0) + 0.00078 x(j2,m0) + 0.60000 y(j0,k1,m1) + 0.60000 y(j2,k0,m1) >= 0.57817
cut_split(17):  0.60000 y(j1,k2,m0) -0.02632 x(j2,m0) + 0.60000 y(j0,k1,m1) + 0.60000 y(j1,k0,m1) + 0.60000 y(j2,k1,m2) + 0.02632 x(j2,m2) >= 0.62632
cut_split(18):  0.02632 x(j0,m0) + 0.60000 y(j0,k1,m0) + 0.60000 y(j1,k2,m0) -0.02632 x(j2,m0) -0.02632 x(j0,m1) + 0.60000 y(j1,k0,m1) + 0.60000 y(j2,k1,m2) + 0.02632 x(j2,m2) >= 0.60526
cut_split(19):  0.60000 y(j0,k1,m0) + 0.60000 y(j1,k0,m0) + 0.60000 y(j1,k2,m0) + 0.60000 y(j2,k0,m1) + 0.60000 y(j0,k2,m2) + 0.60000 y(j2,k1,m2) >= 0.86316
cut_split(20):  0.50000 y(j0,k1,m0) + 0.50000 y(j1,k0,m0) + 0.50000 y(j1,k2,m0) + 0.50000 y(j2,k1,m0) + 0.50000 y(j1,k0,m1) + 0.50000 y(j2,k0,m1) + 0.50000 y(j0,k1,m2) + 0.50000 y(j0,k2,m2) >= 1
cut_split(21):  0.00219 x(j0,m0) + 0.41667 y(j2,k0,m0) + 0.50000 y(j1,k2,m0) -0.00219 x(j2,m0) + 0.50000 y(j0,k1,m1) + 0.50000 y(j1,k0,m1) + 0.50000 y(j2,k0,m1) + 0.50000 y(j0,k1,m2) + 0.50000 y(j0,k2,m2) >= 0.91886
cut_split(22):  0.50000 y(j1,k2,m0) + 0.50000 y(j1,k0,m1) + 0.50000 y(j2,k0,m1) + 0.50000 y(j0,k1,m2) + 0.50000 y(j0,k2,m2) + 0.50000 y(j2,k1,m2) >= 0.89474
cut_split(23):  0.50000 y(j1,k0,m0) + 0.50000 y(j1,k2,m0) -0.02632 x(j2,m0) + 0.50000 y(j0,k1,m1) + 0.50000 y(j1,k0,m1) + 0.50000 y(j0,k1,m2) + 0.50000 y(j2,k1,m2) + 0.02632 x(j2,m2) >= 0.89474
cut_split(24):  0.50000 y(j1,k0,m0) + 0.50000 y(j1,k2,m0) + 0.50000 y(j1,k0,m1) + 0.50000 y(j2,k1,m1) + 0.50000 y(j0,k1,m2) + 0.50000 y(j0,k2,m2) + 0.50000 y(j2,k1,m2) >= 1
cut_split(25):  0.02632 C -0.00519 x(j0,m0) + 0.95000 y(j0,k1,m0) + 0.95000 y(j1,k0,m0) + 0.75278 y(j0,k2,m0) + 0.95000 y(j2,k0,m0) + 0.95000 y(j1,k2,m0) + 0.95000 y(j2,k1,m0) + 0.00519 x(j2,m0) + 0.95000 y(j1,k2,m2)
 -0.02632 x(j2,m2) >= 0.91586
cut_split(26):  0.02632 C -0.00380 x(j0,m0) + 0.90000 y(j0,k1,m0) + 0.90000 y(j1,k0,m0) + 0.75556 y(j0,k2,m0) + 0.90000 y(j2,k0,m0) + 0.90000 y(j1,k2,m0) + 0.90000 y(j2,k1,m0) + 0.00380 x(j2,m0) + 0.90000 y(j1,k2,m2)
 -0.02632 x(j2,m2) >= 0.91725
cut_split(27):  0.02632 C + 0.80000 y(j0,k1,m0) + 0.80000 y(j1,k0,m0) + 0.80000 y(j0,k2,m0) + 0.80000 y(j2,k0,m0) + 0.80000 y(j1,k2,m0) + 0.80000 y(j2,k1,m0) + 0.80000 y(j1,k2,m2) -0.02632 x(j2,m2) >= 0.92105
cut_split(28):  0.02632 C + 0.70000 y(j0,k1,m0) + 0.70000 y(j1,k0,m0) + 0.70000 y(j1,k2,m0) + 0.70000 y(j2,k1,m0) + 0.70000 y(j1,k2,m2) -0.02632 x(j2,m2) >= 0.85789
cut_split(29):  0.70000 y(j0,k1,m0) + 0.70000 y(j1,k0,m0) + 0.70000 y(j0,k2,m0) + 0.70000 y(j2,k0,m0) + 0.00253 x(j1,m0) + 0.70000 y(j1,k2,m0) + 0.60370 y(j2,k1,m0) -0.00253 x(j2,m0) >= 0.60624
cut_split(30):  0.02632 C + 0.70000 y(j0,k1,m0) + 0.70000 y(j1,k0,m0) + 0.70000 y(j0,k2,m0) + 0.70000 y(j2,k0,m0) + 0.70000 y(j1,k2,m0) + 0.70000 y(j2,k1,m0) + 0.70000 y(j1,k2,m2) -0.02632 x(j2,m2) >= 0.85789
cut_split(31):  0.05263 C + 0.70000 y(j0,k1,m0) + 0.70000 y(j1,k0,m0) + 0.70000 y(j0,k2,m0) + 0.70000 y(j2,k0,m0) + 0.70000 y(j1,k2,m0) -0.02632 x(j2,m0) + 0.70000 y(j1,k2,m2) -0.02632 x(j2,m2) >= 1.04211
cut_split(32):  0.60000 y(j0,k1,m0) + 0.60000 y(j1,k0,m0) + 0.60000 y(j1,k2,m0) + 0.60000 y(j2,k1,m0) >= 0.57895
cut_split(33):  0.02632 C + 0.60000 y(j0,k1,m0) + 0.60000 y(j2,k0,m0) + 0.60000 y(j1,k2,m0) -0.00565 x(j1,m2) + 0.38519 y(j1,k2,m2) -0.02066 x(j2,m2) >= 0.57135
cut_split(34):  0.02632 C + 0.60000 y(j0,k1,m0) + 0.60000 y(j1,k0,m0) + 0.60000 y(j1,k2,m0) + 0.60000 y(j2,k1,m0) + 0.60000 y(j1,k2,m2) -0.02632 x(j2,m2) >= 0.75789
cut_split(35):  0.02632 C + 0.50000 y(j0,k1,m0) + 0.50000 y(j1,k0,m0) + 0.50000 y(j0,k2,m0) + 0.50000 y(j2,k0,m0) -0.00097 x(j1,m2) + 0.46296 y(j1,k2,m2) -0.02534 x(j2,m2) >= 0.62573
cut_split(36):  0.02632 C + 0.50000 y(j0,k1,m0) + 0.50000 y(j2,k0,m0) + 0.50000 y(j1,k2,m0) -0.00195 x(j1,m2) + 0.42593 y(j1,k2,m2) -0.02437 x(j2,m2) >= 0.59357
cut_split(37):  0.50000 y(j0,k1,m0) + 0.50000 y(j1,k0,m0) + 0.50000 y(j1,k2,m0) + 0.50000 y(j2,k1,m0) >= 0.50000
cut_split(38):  -0.02622 x(j0,m0) + 0.94630 y(j1,k0,m0) -0.05000 y(j0,k2,m0) -0.00010 x(j1,m0) + 0.95000 y(j2,k1,m0) + 0.02632 x(j2,m0) + 0.95000 y(j0,k1,m1) + 0.95000 y(j1,k0,m1) + 0.95000 y(j0,k2,m1) + 0.95000 y(j2,k0,m1)
 -0.02632 x(j1,m1) + 0.95000 y(j2,k1,m1) + 0.02632 x(j1,m2) + 0.95000 y(j1,k2,m2) >= 1.00253
cut_split(39):  0.95000 y(j1,k0,m1) + 0.95000 y(j0,k2,m1) + 0.95000 y(j2,k0,m1) + 0.95000 y(j0,k1,m2) + 0.95000 y(j1,k2,m2) + 0.95000 y(j2,k1,m2) >= 0.92105
cut_split(40):  0.95000 y(j1,k0,m1) + 0.95000 y(j0,k1,m2) + 0.95000 y(j1,k2,m2) + 0.95000 y(j2,k1,m2) >= 0.71053
cut_split(41):  -0.02612 x(j0,m0) + 0.89259 y(j1,k0,m0) -0.10000 y(j0,k2,m0) -0.00019 x(j1,m0) + 0.90000 y(j2,k1,m0) + 0.02632 x(j2,m0) + 0.90000 y(j1,k0,m1) + 0.90000 y(j0,k2,m1) + 0.90000 y(j2,k0,m1) + 0.90000 y(j0,k1,m2)
 >= 0.82086
cut_split(42):  -0.10000 y(j0,k2,m0) -0.10000 y(j2,k0,m0) + 0.90000 y(j1,k0,m1) + 0.90000 y(j0,k2,m1) + 0.90000 y(j2,k0,m1) + 0.90000 y(j2,k1,m1) + 0.90000 y(j0,k1,m2) + 0.90000 y(j1,k2,m2) >= 0.72105
cut_split(43):  0.90000 y(j1,k0,m1) + 0.90000 y(j2,k1,m1) + 0.90000 y(j0,k1,m2) + 0.90000 y(j1,k2,m2) >= 0.71053
cut_split(44):  -0.20000 y(j0,k2,m0) + 0.02632 x(j2,m0) -0.02632 x(j0,m1) + 0.80000 y(j1,k0,m1) + 0.80000 y(j2,k0,m1) + 0.80000 y(j2,k1,m1) + 0.80000 y(j0,k1,m2) + 0.80000 y(j1,k2,m2) >= 0.72105
cut_split(45):  -0.02495 x(j0,m0) + 0.74815 y(j1,k0,m0) -0.20000 y(j0,k2,m0) -0.00136 x(j1,m0) + 0.80000 y(j2,k1,m0) + 0.02632 x(j2,m0) + 0.80000 y(j0,k2,m1) + 0.80000 y(j2,k0,m1) -0.02632 x(j1,m1) + 0.80000 y(j2,k1,m1)
 + 0.02632 x(j1,m2) + 0.80000 y(j1,k2,m2) >= 0.66706
cut_split(46):  0.80000 y(j0,k1,m1) + 0.80000 y(j1,k0,m1) + 0.80000 y(j2,k0,m1) + 0.80000 y(j0,k1,m2) + 0.80000 y(j1,k2,m2) >= 0.80000
cut_split(47):  -0.02573 x(j0,m0) + 0.67778 y(j1,k0,m0) -0.30000 y(j0,k2,m0) -0.00058 x(j1,m0) + 0.70000 y(j2,k1,m0) + 0.02632 x(j2,m0) + 0.70000 y(j1,k0,m1) + 0.70000 y(j0,k1,m2) >= 0.40994
cut_split(48):  -0.02476 x(j0,m0) + 0.64074 y(j1,k0,m0) -0.30000 y(j0,k2,m0) -0.00156 x(j1,m0) + 0.70000 y(j2,k1,m0) + 0.02632 x(j2,m0) + 0.70000 y(j0,k1,m1) + 0.70000 y(j1,k0,m1) + 0.70000 y(j0,k2,m1) + 0.70000 y(j2,k0,m1)
 >= 0.38265
cut_split(49):  0.70000 y(j1,k0,m1) + 0.70000 y(j0,k2,m1) + 0.70000 y(j2,k0,m1) + 0.70000 y(j0,k1,m2) >= 0.63158
cut_split(50):  -0.02632 x(j0,m0) + 0.70000 y(j1,k0,m0) -0.30000 y(j0,k2,m0) + 0.70000 y(j2,k1,m0) + 0.02632 x(j2,m0) + 0.70000 y(j0,k1,m1) + 0.70000 y(j1,k0,m1) -0.02632 x(j1,m1) + 0.70000 y(j2,k1,m1) + 0.02632 x(j1,m2)
 + 0.70000 y(j1,k2,m2) >= 0.50526
cut_split(51):  0.70000 y(j0,k1,m1) + 0.70000 y(j1,k0,m1) -0.02632 x(j1,m1) + 0.70000 y(j2,k1,m1) + 0.02632 x(j1,m2) + 0.70000 y(j1,k2,m2) >= 0.55263
cut_split(52):  0.60000 y(j1,k0,m1) + 0.60000 y(j0,k2,m1) + 0.60000 y(j2,k1,m1) + 0.60000 y(j1,k2,m2) + 0.60000 y(j2,k1,m2) >= 0.57895
cut_split(53):  -0.02632 x(j0,m0) + 0.60000 y(j1,k0,m0) -0.40000 y(j0,k2,m0) + 0.60000 y(j2,k1,m0) + 0.02632 x(j2,m0) + 0.60000 y(j1,k0,m1) + 0.60000 y(j0,k2,m1) + 0.60000 y(j2,k1,m1) >= 0.17895
cut_split(54):  0.60000 y(j1,k0,m1) + 0.60000 y(j2,k1,m1) + 0.60000 y(j0,k1,m2) + 0.60000 y(j1,k2,m2) >= 0.60000
cut_split(55):  0.50000 y(j0,k2,m1) + 0.50000 y(j2,k0,m1) + 0.50000 y(j1,k2,m2) + 0.50000 y(j2,k1,m2) >= 0.50000
cut_split(56):  0.50000 y(j1,k0,m1) + 0.50000 y(j0,k1,m2) >= 0.42105
cut_split(57):  -0.01316 x(j0,m0) + 0.50000 y(j1,k0,m0) + 0.50000 y(j2,k1,m0) + 0.01316 x(j2,m0) + 0.50000 y(j1,k0,m1) + 0.50000 y(j2,k1,m1) + 0.50000 y(j0,k1,m2) + 0.50000 y(j1,k2,m2) >= 0.51316
cut_split(58):  0.02632 C + 0.95000 y(j1,k2,m0) + 0.95000 y(j2,k1,m1) + 0.95000 y(j0,k2,m2) -0.02632 x(j1,m2) + 0.95000 y(j2,k1,m2) >= 1
cut_split(59):  0.95000 y(j1,k2,m0) + 0.95000 y(j2,k1,m0) + 0.95000 y(j0,k2,m2) + 0.95000 y(j2,k0,m2) + 0.95000 y(j1,k2,m2) + 0.95000 y(j2,k1,m2) >= 0.84211
cut_split(60):  0.02632 C + 0.90000 y(j1,k2,m0) + 0.90000 y(j2,k1,m1) + 0.90000 y(j0,k2,m2) -0.02632 x(j1,m2) + 0.90000 y(j2,k1,m2) >= 1
cut_split(61):  0.80000 y(j1,k2,m0) + 0.80000 y(j2,k1,m1) + 0.80000 y(j1,k2,m2) + 0.80000 y(j2,k1,m2) >= 0.76316
cut_split(62):  0.70000 y(j1,k2,m0) + 0.70000 y(j2,k1,m0) + 0.70000 y(j1,k0,m2) + 0.70000 y(j0,k2,m2) + 0.70000 y(j2,k1,m2) >= 0.68421
cut_split(63):  0.05263 C + 0.70000 y(j1,k2,m0) + 0.70000 y(j2,k1,m1) -0.05263 x(j0,m2) + 0.70000 y(j1,k0,m2) + 0.70000 y(j2,k0,m2) + 0.70000 y(j1,k2,m2) >= 1.10526
cut_split(64):  0.02632 C + 0.70000 y(j1,k2,m0) + 0.70000 y(j2,k1,m1) -0.02632 x(j0,m2) + 0.70000 y(j1,k0,m2) + 0.70000 y(j0,k2,m2) + 0.70000 y(j2,k0,m2) >= 0.93684
cut_split(65):  -0.02632 x(j1,m1) + 0.70000 y(j2,k1,m1) + 0.70000 y(j1,k0,m2) + 0.70000 y(j0,k2,m2) + 0.02632 x(j1,m2) + 0.70000 y(j1,k2,m2) + 0.70000 y(j2,k1,m2) >= 0.76316
cut_split(66):  0.02632 C + 0.70000 y(j1,k2,m0) + 0.70000 y(j2,k1,m1) -0.02632 x(j0,m2) + 0.70000 y(j1,k0,m2) + 0.70000 y(j1,k2,m2) + 0.70000 y(j2,k1,m2) >= 0.93684
cut_split(67):  0.02632 C + 0.70000 y(j1,k2,m0) + 0.70000 y(j2,k1,m1) + 0.70000 y(j0,k2,m2) -0.02632 x(j1,m2) + 0.70000 y(j2,k1,m2) >= 0.83158
cut_split(68):  0.60000 y(j1,k2,m0) + 0.60000 y(j2,k1,m0) + 0.60000 y(j1,k2,m2) + 0.60000 y(j2,k1,m2) >= 0.57895
cut_split(69):  0.60000 y(j0,k2,m2) + 0.60000 y(j2,k0,m2) + 0.60000 y(j1,k2,m2) + 0.60000 y(j2,k1,m2) >= 0.55263
cut_split(70):  -0.00097 x(j1,m0) + 0.46296 y(j1,k2,m0) + 0.00097 x(j2,m0) + 0.50000 y(j2,k1,m1) >= 0.47271
cut_split(71):  0.50000 y(j0,k2,m2) + 0.50000 y(j2,k0,m2) + 0.50000 y(j1,k2,m2) + 0.50000 y(j2,k1,m2) >= 0.50000
cut_split(72):  0.50000 y(j1,k2,m0) + 0.50000 y(j2,k1,m1) + 0.50000 y(j0,k2,m2) + 0.50000 y(j2,k0,m2) + 0.50000 y(j1,k2,m2) + 0.50000 y(j2,k1,m2) >= 0.52632
cut_split(73):  0.07895 C -0.02632 x(j0,m0) + 0.95000 y(j1,k0,m0) -0.02632 x(j0,m1) + 0.95000 y(j1,k0,m1) -0.02632 x(j0,m2) + 0.95000 y(j2,k0,m2) + 0.95000 y(j1,k2,m2) >= 1.21053
cut_split(74):  0.07895 C -0.02632 x(j0,m0) + 0.90000 y(j1,k0,m0) -0.02632 x(j0,m1) + 0.90000 y(j1,k0,m1) -0.02632 x(j0,m2) + 0.90000 y(j2,k0,m2) + 0.90000 y(j1,k2,m2) >= 1.21053
cut_split(75):  0.07895 C -0.02632 x(j0,m0) + 0.80000 y(j1,k0,m0) -0.02632 x(j0,m1) + 0.80000 y(j1,k0,m1) -0.02632 x(j0,m2) + 0.80000 y(j2,k0,m2) + 0.80000 y(j1,k2,m2) >= 1.19474
cut_split(76):  0.07895 C -0.02632 x(j0,m0) + 0.80000 y(j1,k0,m0) -0.02632 x(j0,m1) + 0.80000 y(j1,k0,m1) -0.02632 x(j0,m2) + 0.80000 y(j2,k0,m2) >= 1.07895
cut_split(77):  0.05263 C -0.02632 x(j0,m0) + 0.70000 y(j1,k0,m0) -0.02632 x(j0,m1) + 0.70000 y(j1,k0,m1) >= 0.81579
cut_split(78):  0.07895 C -0.02632 x(j0,m0) + 0.70000 y(j1,k0,m0) -0.02632 x(j0,m1) + 0.70000 y(j1,k0,m1) -0.02632 x(j0,m2) + 0.70000 y(j2,k0,m2) >= 1.07895
cut_split(79):  0.05263 C -0.02632 x(j0,m0) + 0.60000 y(j1,k0,m0) -0.02632 x(j0,m2) + 0.60000 y(j2,k0,m2) + 0.60000 y(j1,k2,m2) >= 0.86316
cut_split(80):  0.02632 C -0.02632 x(j0,m0) + 0.50000 y(j1,k0,m0) >= 0.50000
cut_split(81):  0.07895 C -0.02632 x(j0,m0) + 0.50000 y(j1,k0,m0) -0.02632 x(j0,m1) + 0.50000 y(j1,k0,m1) -0.02632 x(j0,m2) + 0.50000 y(j2,k0,m2) + 0.50000 y(j1,k2,m2) >= 0.89474
cut_split(82):  0.07895 C + 0.95000 y(j1,k2,m0) -0.05263 x(j0,m1) + 0.95000 y(j1,k0,m1) + 0.95000 y(j2,k0,m1) -0.02632 x(j0,m2) + 0.95000 y(j2,k0,m2) + 0.95000 y(j1,k2,m2) >= 1.42105
cut_split(83):  0.02632 C + 0.95000 y(j1,k2,m0) -0.02632 x(j0,m1) + 0.95000 y(j2,k0,m1) >= 0.71053
cut_split(84):  0.05263 C -0.02632 x(j0,m1) + 0.95000 y(j1,k0,m1) -0.02632 x(j0,m2) + 0.95000 y(j2,k0,m2) + 0.95000 y(j1,k2,m2) >= 0.71053
cut_split(85):  0.05263 C + 0.90000 y(j1,k2,m0) -0.05263 x(j0,m1) + 0.90000 y(j1,k0,m1) + 0.90000 y(j2,k0,m1) >= 1.02632
cut_split(86):  0.02632 C + 0.90000 y(j1,k2,m0) -0.02632 x(j0,m1) + 0.90000 y(j2,k0,m1) >= 0.71053
cut_split(87):  0.02261 x(j1,m0) + 0.90000 y(j1,k2,m0) + 0.04074 y(j2,k1,m0) -0.02261 x(j2,m0) >= 0.06335
cut_split(88):  0.05263 C + 0.80000 y(j1,k2,m0) -0.05263 x(j0,m1) + 0.80000 y(j1,k0,m1) + 0.80000 y(j2,k0,m1) >= 1.02632
cut_split(89):  0.02632 C + 0.80000 y(j1,k2,m0) -0.02632 x(j0,m1) + 0.80000 y(j2,k0,m1) >= 0.71053
cut_split(90):  0.01891 x(j1,m0) + 0.80000 y(j1,k2,m0) + 0.08148 y(j2,k1,m0) -0.01891 x(j2,m0) >= 0.10039
cut_split(91):  0.02632 C + 0.70000 y(j1,k2,m0) -0.02632 x(j0,m1) + 0.70000 y(j2,k0,m1) >= 0.71053
cut_split(92):  0.01520 x(j1,m0) + 0.70000 y(j1,k2,m0) + 0.12222 y(j2,k1,m0) -0.01520 x(j2,m0) >= 0.13743
cut_split(93):  0.60000 y(j1,k2,m0) + 0.60000 y(j2,k1,m0) -0.00169 x(j0,m2) + 0.53571 y(j0,k2,m2) + 0.60000 y(j2,k0,m2) + 0.00169 x(j2,m2) >= 0.54248
cut_split(94):  0.02632 C -0.00078 x(j1,m0) + 0.57037 y(j1,k2,m0) + 0.00078 x(j2,m0) -0.02632 x(j0,m1) + 0.60000 y(j2,k0,m1) >= 0.70975
cut_split(95):  0.01150 x(j1,m0) + 0.60000 y(j1,k2,m0) + 0.16296 y(j2,k1,m0) -0.01150 x(j2,m0) >= 0.17446
cut_split(96):  0.50000 y(j2,k0,m1) + 0.50000 y(j0,k2,m2) >= 0.50000
cut_split(97):  0.50000 y(j1,k2,m0) + 0.50000 y(j2,k1,m0) + 0.50000 y(j0,k2,m2) + 0.50000 y(j2,k0,m2) >= 0.50000
cut_split(98):  0.00780 x(j1,m0) + 0.50000 y(j1,k2,m0) + 0.20370 y(j2,k1,m0) -0.00780 x(j2,m0) >= 0.21150
cut_split(99):  0.02632 C -0.02632 x(j1,m0) + 0.95000 y(j2,k1,m0) + 0.02632 x(j2,m0) -0.02810 x(j0,m1) + 0.88226 y(j0,k1,m1) + 0.95000 y(j1,k0,m1) -0.05000 y(j0,k2,m1) + 0.00178 x(j1,m1) >= 0.57360
cut_split(100):  0.02632 C -0.02632 x(j0,m1) + 0.95000 y(j1,k0,m1) >= 0.31579
cut_split(101):  0.02632 C -0.02632 x(j1,m0) + 0.90000 y(j2,k1,m0) + 0.02632 x(j2,m0) -0.02649 x(j0,m1) + 0.89355 y(j0,k1,m1) + 0.90000 y(j1,k0,m1) -0.10000 y(j0,k2,m1) + 0.00017 x(j1,m1) >= 0.57844
cut_split(102):  0.02632 C -0.02632 x(j0,m1) + 0.90000 y(j1,k0,m1) >= 0.31579
cut_split(103):  0.02632 C -0.01895 x(j0,m1) + 0.80000 y(j0,k1,m1) + 0.80000 y(j1,k0,m1) + 0.52000 y(j2,k0,m1) -0.00737 x(j2,m1) + 0.80000 y(j1,k2,m2) >= 0.68105
cut_split(104):  -0.02632 x(j1,m0) + 0.80000 y(j2,k1,m0) + 0.02632 x(j2,m0) -0.02316 x(j0,m1) + 0.80000 y(j1,k0,m1) -0.08000 y(j0,k2,m1) + 0.02632 x(j1,m1) -0.00316 x(j2,m1) >= 0.38105
cut_split(105):  0.02632 C -0.02632 x(j0,m1) + 0.80000 y(j1,k0,m1) >= 0.31579
cut_split(106):  -0.01917 x(j0,m2) + 0.07143 y(j0,k2,m2) + 0.80000 y(j2,k0,m2) + 0.01917 x(j2,m2) >= 0.14812
cut_split(107):  -0.01891 x(j1,m0) + 0.08148 y(j1,k2,m0) + 0.80000 y(j2,k1,m0) + 0.01891 x(j2,m0) >= 0.27057
cut_split(108):  0.02632 C -0.02228 x(j0,m1) + 0.70000 y(j0,k1,m1) + 0.70000 y(j1,k0,m1) + 0.54667 y(j2,k0,m1) -0.00404 x(j2,m1) + 0.70000 y(j1,k2,m2) >= 0.69439
cut_split(109):  0.70000 y(j0,k1,m1) + 0.70000 y(j1,k0,m1) + 0.00838 x(j1,m2) + 0.70000 y(j1,k2,m2) + 0.38148 y(j2,k1,m2) -0.00838 x(j2,m2) >= 0.43177
cut_split(110):  0.02632 C -0.02632 x(j1,m0) + 0.70000 y(j2,k1,m0) -0.02632 x(j0,m1) + 0.70000 y(j1,k0,m1) + 0.02632 x(j1,m1) -0.01520 x(j1,m2) + 0.12222 y(j1,k2,m2) + 0.01520 x(j2,m2) >= 0.59298
cut_split(111):  0.02632 C -0.02632 x(j0,m1) + 0.70000 y(j1,k0,m1) >= 0.31579
cut_split(112):  0.05263 C -0.05193 x(j0,m1) + 0.60000 y(j1,k0,m1) + 0.57333 y(j2,k0,m1) -0.00070 x(j2,m1) + 0.60000 y(j1,k2,m2) >= 0.83930
cut_split(113):  0.05263 C -0.05193 x(j0,m1) + 0.60000 y(j1,k0,m1) + 0.57333 y(j2,k0,m1) -0.00070 x(j2,m1) + 0.60000 y(j1,k2,m2) >= 0.83930
cut_split(114):  0.02632 C -0.02632 x(j1,m0) + 0.60000 y(j2,k1,m0) -0.02632 x(j0,m1) + 0.60000 y(j1,k0,m1) + 0.02632 x(j1,m1) -0.01150 x(j1,m2) + 0.16296 y(j1,k2,m2) + 0.01150 x(j2,m2) >= 0.61520
cut_split(115):  0.02632 C -0.02632 x(j0,m1) + 0.60000 y(j1,k0,m1) >= 0.31579
cut_split(116):  0.05263 C -0.05263 x(j0,m1) + 0.50000 y(j1,k0,m1) + 0.50000 y(j2,k0,m1) + 0.50000 y(j1,k2,m2) >= 0.76316
cut_split(117):  0.05263 C -0.05263 x(j0,m1) + 0.50000 y(j1,k0,m1) + 0.50000 y(j2,k0,m1) + 0.50000 y(j1,k2,m2) >= 0.76316
cut_split(118):  0.02632 C -0.02632 x(j0,m1) + 0.50000 y(j1,k0,m1) >= 0.31579
cut_split(119):  -0.05000 y(j1,k2,m0) -0.05000 y(j2,k1,m0) >= -0.05000
cut_split(120):  -0.10000 y(j2,k1,m0) -0.02632 x(j2,m0) + 0.02320 x(j1,m2) + 0.78148 y(j1,k2,m2) + 0.00312 x(j2,m2) >= 0.16550
cut_split(121):  -0.20000 y(j2,k1,m0) -0.02632 x(j2,m0) + 0.02632 x(j1,m2) + 0.80000 y(j1,k2,m2) >= 0.16842
cut_split(122):  0.02632 C -0.20000 y(j2,k1,m0) -0.02632 x(j2,m0) >= 0.18421
cut_split(123):  0.00039 x(j1,m0) -0.28519 y(j1,k2,m0) -0.30000 y(j2,k1,m0) -0.00039 x(j2,m0) >= -0.29961
cut_split(124):  -0.30000 y(j2,k1,m0) -0.02632 x(j2,m0) + 0.02632 x(j1,m2) + 0.70000 y(j1,k2,m2) >= 0.06842
cut_split(125):  0.02632 C -0.30000 y(j2,k1,m0) -0.02632 x(j2,m0) >= 0.18421
cut_split(126):  0.60000 y(j0,k1,m1) + 0.60000 y(j2,k0,m1) -0.02632 x(j1,m1) + 0.01871 x(j1,m2) + 0.31111 y(j1,k2,m2) + 0.00760 x(j2,m2) >= 0.42807
cut_split(127):  0.02632 C -0.40000 y(j2,k1,m0) -0.02632 x(j2,m0) >= 0.10000
cut_split(128):  0.50000 y(j0,k1,m1) + 0.50000 y(j2,k0,m1) -0.02632 x(j1,m1) + 0.02242 x(j1,m2) + 0.35185 y(j1,k2,m2) + 0.00390 x(j2,m2) >= 0.45029
cut_split(129):  0.02632 C -0.50000 y(j2,k1,m0) -0.02632 x(j2,m0) >= 0
cut_split(130):  0.95000 y(j1,k2,m2) + 0.95000 y(j2,k1,m2) >= 0.28947
cut_split(131):  0.90000 y(j1,k2,m2) + 0.90000 y(j2,k1,m2) >= 0.28947
cut_split(132):  0.80000 y(j1,k2,m2) + 0.80000 y(j2,k1,m2) >= 0.28947
cut_split(133):  0.70000 y(j1,k2,m2) + 0.70000 y(j2,k1,m2) >= 0.28948
cut_split(134):  0.70000 y(j1,k2,m2) + 0.70000 y(j2,k1,m2) >= 0.28947
cut_split(135):  0.60000 y(j1,k2,m2) + 0.60000 y(j2,k1,m2) >= 0.28947
cut_split(136):  0.50000 y(j1,k2,m2) + 0.50000 y(j2,k1,m2) >= 0.28947
cut_split(137):  0.02632 x(j0,m1) + 0.95000 y(j0,k1,m1) -0.02632 x(j1,m1) -0.05000 y(j1,k0,m2) >= 0.07895
cut_split(138):  0.02465 x(j0,m1) + 0.95000 y(j0,k2,m1) + 0.01333 y(j2,k0,m1) -0.02465 x(j2,m1) >= 0.11193
cut_split(139):  -0.10000 y(j2,k1,m0) + 0.00272 x(j0,m1) + 0.79677 y(j1,k0,m1) + 0.90000 y(j0,k2,m1) + 0.02360 x(j1,m1) -0.02632 x(j2,m1) >= 0.19966
cut_split(140):  -0.00058 x(j1,m0) -0.17778 y(j2,k1,m0) + 0.00058 x(j2,m0) + 0.80000 y(j1,k0,m1) + 0.80000 y(j0,k2,m1) + 0.02632 x(j1,m1) -0.02632 x(j2,m1) >= 0.21637
cut_split(141):  -0.00429 x(j1,m0) -0.13704 y(j2,k1,m0) + 0.00429 x(j2,m0) + 0.70000 y(j1,k0,m1) + 0.70000 y(j0,k2,m1) + 0.02632 x(j1,m1) -0.02632 x(j2,m1) >= 0.25341
cut_split(142):  0.60000 y(j1,k2,m0) -0.02632 x(j2,m0) + 0.02632 x(j0,m1) + 0.60000 y(j0,k1,m1) -0.01711 x(j0,m2) + 0.25000 y(j2,k0,m2) + 0.01711 x(j2,m2) >= 0.43684
cut_split(143):  -0.00799 x(j1,m0) -0.09630 y(j2,k1,m0) + 0.00799 x(j2,m0) + 0.60000 y(j1,k0,m1) + 0.60000 y(j0,k2,m1) + 0.02632 x(j1,m1) -0.02632 x(j2,m1) >= 0.29045
cut_split(144):  0.01341 x(j0,m1) + 0.60000 y(j0,k1,m1) + 0.09032 y(j1,k0,m1) -0.01341 x(j1,m1) >= 0.13056
cut_split(145):  0.50000 y(j1,k2,m0) -0.02632 x(j2,m0) + 0.02632 x(j0,m1) + 0.50000 y(j0,k1,m1) -0.02068 x(j0,m2) + 0.28571 y(j2,k0,m2) + 0.02068 x(j2,m2) >= 0.45113
cut_split(146):  0.01019 x(j0,m1) + 0.50000 y(j0,k1,m1) + 0.11290 y(j1,k0,m1) -0.01019 x(j1,m1) >= 0.14346
cut_split(147):  -0.01170 x(j1,m0) -0.05556 y(j2,k1,m0) + 0.01170 x(j2,m0) + 0.50000 y(j1,k0,m1) + 0.50000 y(j0,k2,m1) + 0.02632 x(j1,m1) -0.02632 x(j2,m1) >= 0.32749
cut_split(148):  -0.02566 x(j0,m0) + 0.95000 y(j1,k0,m0) -0.02500 y(j0,k2,m0) + 0.02632 x(j1,m0) -0.05000 y(j2,k1,m0) -0.00066 x(j2,m0) >= -0.02303
cut_split(149):  0.02632 C -0.02632 x(j0,m0) -0.05000 y(j0,k1,m0) + 0.02632 x(j1,m0) + 0.95000 y(j1,k2,m0) -0.02632 x(j2,m0) >= 0.05263
cut_split(150):  -0.02446 x(j0,m0) + 0.02037 y(j0,k1,m0) + 0.95000 y(j1,k0,m0) + 0.05078 x(j1,m0) + 0.95000 y(j1,k2,m0) -0.05000 y(j2,k1,m0) -0.02632 x(j2,m0) >= 0.02115
cut_split(151):  -0.02427 x(j0,m0) + 0.90000 y(j1,k0,m0) -0.02222 y(j0,k2,m0) + 0.02632 x(j1,m0) -0.10000 y(j2,k1,m0) -0.00205 x(j2,m0) >= -0.07164
cut_split(152):  0.02632 C -0.02632 x(j0,m0) -0.10000 y(j0,k1,m0) + 0.02632 x(j1,m0) + 0.90000 y(j1,k2,m0) -0.02632 x(j2,m0) >= 0.05263
cut_split(153):  -0.02261 x(j0,m0) + 0.04074 y(j0,k1,m0) + 0.90000 y(j1,k0,m0) + 0.04893 x(j1,m0) + 0.90000 y(j1,k2,m0) -0.10000 y(j2,k1,m0) -0.02632 x(j2,m0) >= -0.01033
cut_split(154):  -0.02149 x(j0,m0) + 0.80000 y(j1,k0,m0) -0.01667 y(j0,k2,m0) + 0.02632 x(j1,m0) -0.20000 y(j2,k1,m0) -0.00482 x(j2,m0) >= -0.16886
cut_split(155):  -0.01891 x(j0,m0) + 0.08148 y(j0,k1,m0) + 0.80000 y(j1,k0,m0) + 0.01891 x(j1,m0) >= 0.10039
cut_split(156):  -0.30000 y(j2,k1,m0) + 0.02632 x(j1,m1) + 0.70000 y(j1,k2,m1) -0.02632 x(j2,m1) >= 0.09474
cut_split(157):  0.60000 y(j1,k2,m0) -0.02632 x(j2,m0) + 0.00468 x(j1,m2) + 0.42222 y(j2,k1,m2) + 0.02164 x(j2,m2) >= 0.47661
cut_split(158):  -0.01203 x(j0,m2) + 0.14286 y(j0,k2,m2) + 0.60000 y(j2,k0,m2) + 0.01203 x(j2,m2) >= 0.19098
cut_split(159):  -0.40000 y(j2,k1,m0) + 0.02632 x(j1,m1) + 0.60000 y(j1,k2,m1) -0.02632 x(j2,m1) >= -0.00526
cut_split(160):  0.50000 y(j1,k2,m0) -0.02632 x(j2,m0) + 0.00097 x(j1,m2) + 0.46296 y(j2,k1,m2) + 0.02534 x(j2,m2) >= 0.49513
cut_split(161):  -0.00846 x(j0,m2) + 0.17857 y(j0,k2,m2) + 0.50000 y(j2,k0,m2) + 0.00846 x(j2,m2) >= 0.21241
Bounds
 0 <= C <= 38
 8 <= x(j0,m0) <= 37
 0 <= y(j0,k1,m0) <= 1
 0 <= y(j1,k0,m0) <= 1
 0 <= y(j0,k2,m0) <= 1
 0 <= y(j2,k0,m0) <= 1
 0 <= x(j1,m0) <= 20
 0 <= y(j1,k2,m0) <= 1
 0 <= y(j2,k1,m0) <= 1
 4 <= x(j2,m0) <= 31
 4 <= x(j0,m1) <= 33
 0 <= y(j0,k1,m1) <= 1
 0 <= y(j1,k0,m1) <= 1
 0 <= y(j0,k2,m1) <= 1
 0 <= y(j2,k0,m1) <= 1
 10 <= x(j1,m1) <= 30
 0 <= y(j1,k2,m1) <= 1
 0 <= y(j2,k1,m1) <= 1
 0 <= x(j2,m1) <= 27
 0 <= x(j0,m2) <= 29
 0 <= y(j0,k1,m2) <= 1
 0 <= y(j1,k0,m2) <= 1
 0 <= y(j0,k2,m2) <= 1
 0 <= y(j2,k0,m2) <= 1
 13 <= x(j1,m2) <= 33
 0 <= y(j1,k2,m2) <= 1
 0 <= y(j2,k1,m2) <= 1
 5 <= x(j2,m2) <= 32
End
